data/solutions/planning/wellformed/intermediate/weighting/wellformed_intermediate_instance38_gurobi.sol
Elapsed time: 1000.88
Nodes explored: 1628540
Nodes left: 737977
Relative gap: 0.133
Upper bound: 102113086.0
Lower bound: 101977530
C[0]=24939.0
C[1]=24938.0
C[2]=24936.0
C[3]=24924.0
C[4]=24922.0
C[5]=24921.0
C[6]=24921.0
C[7]=24886.0
C[8]=24886.0
C[9]=24879.0
C[10]=24838.0
C[11]=24838.0
y[0]=10
y[1]=11
y[2]=9
y[3]=6
y[4]=10
y[5]=1
y[6]=9
y[7]=3
y[8]=6
y[9]=10
y[10]=3
y[11]=2
y[12]=6
y[13]=8
y[14]=7
y[15]=3
y[16]=0
y[17]=7
y[18]=3
y[19]=5
y[20]=1
y[21]=1
y[22]=0
y[23]=5
y[24]=5
y[25]=5
y[26]=3
y[27]=7
y[28]=0
y[29]=3
y[30]=5
y[31]=3
y[32]=9
y[33]=4
y[34]=4
y[35]=8
y[36]=9
y[37]=9
y[38]=0
y[39]=8
y[40]=5
y[41]=10
y[42]=3
y[43]=5
y[44]=11
y[45]=5
y[46]=11
y[47]=3
y[48]=4
y[49]=2
y[50]=2
y[51]=1
y[52]=8
y[53]=10
y[54]=11
y[55]=3
y[56]=10
y[57]=4
y[58]=7
y[59]=3
y[60]=5
y[61]=8
y[62]=6
y[63]=9
y[64]=1
y[65]=7
y[66]=8
y[67]=4
y[68]=5
y[69]=4
y[70]=10
y[71]=7
y[72]=2
y[73]=7
y[74]=9
y[75]=5
y[76]=9
y[77]=9
y[78]=9
y[79]=6
y[80]=10
y[81]=3
y[82]=11
y[83]=4
y[84]=7
y[85]=3
y[86]=0
y[87]=6
y[88]=2
y[89]=6
y[90]=7
y[91]=9
y[92]=2
y[93]=10
y[94]=3
y[95]=5
y[96]=0
y[97]=6
y[98]=10
y[99]=11
y[100]=6
y[101]=2
y[102]=1
y[103]=10
y[104]=2
y[105]=7
y[106]=8
y[107]=11
y[108]=6
y[109]=0
y[110]=5
y[111]=4
y[112]=4
y[113]=9
y[114]=2
y[115]=9
y[116]=6
y[117]=11
y[118]=8
y[119]=2
y[120]=7
y[121]=7
y[122]=2
y[123]=1
y[124]=10
y[125]=6
y[126]=9
y[127]=5
y[128]=6
y[129]=6
y[130]=1
y[131]=11
y[132]=1
y[133]=0
y[134]=7
y[135]=8
y[136]=7
y[137]=7
y[138]=11
y[139]=11
y[140]=5
y[141]=2
y[142]=9
y[143]=3
y[144]=1
y[145]=4
y[146]=3
y[147]=5
y[148]=11
y[149]=2
y[150]=7
y[151]=1
y[152]=2
y[153]=7
y[154]=8
y[155]=7
y[156]=7
y[157]=5
y[158]=11
y[159]=0
y[160]=11
y[161]=7
y[162]=4
y[163]=9
y[164]=3
y[165]=2
y[166]=6
y[167]=2
y[168]=1
y[169]=11
y[170]=11
y[171]=8
y[172]=9
y[173]=5
y[174]=3
y[175]=11
y[176]=1
y[177]=9
y[178]=2
y[179]=5
y[180]=11
y[181]=4
y[182]=3
y[183]=1
y[184]=6
y[185]=1
y[186]=10
y[187]=2
y[188]=2
y[189]=7
y[190]=10
y[191]=6
y[192]=0
y[193]=3
y[194]=5
y[195]=8
y[196]=5
y[197]=4
y[198]=4
y[199]=7
y[200]=11
y[201]=10
y[202]=2
y[203]=6
y[204]=9
y[205]=2
y[206]=1
y[207]=11
y[208]=7
y[209]=6
y[210]=5
y[211]=0
y[212]=4
y[213]=1
y[214]=3
y[215]=3
y[216]=0
y[217]=8
y[218]=8
y[219]=0
y[220]=4
y[221]=9
y[222]=6
y[223]=4
y[224]=0
y[225]=11
y[226]=9
y[227]=11
y[228]=4
y[229]=1
y[230]=8
y[231]=1
y[232]=11
y[233]=10
y[234]=6
y[235]=3
y[236]=11
y[237]=8
y[238]=1
y[239]=7
y[240]=8
y[241]=11
y[242]=9
y[243]=0
y[244]=0
y[245]=8
y[246]=7
y[247]=1
y[248]=5
y[249]=11
y[250]=1
y[251]=4
y[252]=7
y[253]=1
y[254]=4
y[255]=8
y[256]=5
y[257]=3
y[258]=0
y[259]=2
y[260]=10
y[261]=6
y[262]=8
y[263]=4
y[264]=2
y[265]=4
y[266]=0
y[267]=3
y[268]=0
y[269]=0
y[270]=10
y[271]=1
y[272]=3
y[273]=2
y[274]=8
y[275]=0
y[276]=4
y[277]=0
y[278]=4
y[279]=0
y[280]=6
y[281]=4
y[282]=9
y[283]=11
y[284]=1
y[285]=10
y[286]=7
y[287]=2
y[288]=0
y[289]=4
y[290]=10
y[291]=4
y[292]=8
y[293]=8
y[294]=3
y[295]=1
y[296]=10
y[297]=0
y[298]=6
y[299]=0
