data/solutions/planning/wellformed/intermediate/weighting/wellformed_intermediate_instance38_gurobi.log

Gurobi 6.5.2 (linux64) logging started Sat Mar  3 04:36:28 2018

Changed value of parameter LogFile to data/solutions/planning/wellformed/intermediate/weighting/wellformed_intermediate_instance38_gurobi.log
   Prev: gurobi.log  Default: 
Changed value of parameter Threads to 1
   Prev: 0  Min: 0  Max: 1024  Default: 0
Optimize a model with 324 rows, 3613 columns and 7235 nonzeros
Coefficient statistics:
  Matrix range    [1e+00, 2e+03]
  Objective range [1e+00, 2e+03]
  Bounds range    [1e+00, 1e+00]
  RHS range       [1e+00, 1e+00]
Presolve removed 3 rows and 3 columns
Presolve time: 0.01s
Presolved: 321 rows, 3610 columns, 7230 nonzeros
Variable types: 0 continuous, 3610 integer (3600 binary)
Found heuristic solution: objective 6.119997e+08

Root relaxation: objective 1.019751e+08, 464 iterations, 0.00 seconds

    Nodes    |    Current Node    |     Objective Bounds      |     Work
 Expl Unexpl |  Obj  Depth IntInf | Incumbent    BestBd   Gap | It/Node Time

     0     0 1.0198e+08    0   29 6.1200e+08 1.0198e+08  83.3%     -    0s
H    0     0                    1.170717e+08 1.0198e+08  12.9%     -    0s
     0     0 1.0198e+08    0   37 1.1707e+08 1.0198e+08  12.9%     -    0s
     0     0 1.0198e+08    0   37 1.1707e+08 1.0198e+08  12.9%     -    0s
     0     0 1.0198e+08    0   45 1.1707e+08 1.0198e+08  12.9%     -    0s
     0     0 1.0198e+08    0   32 1.1707e+08 1.0198e+08  12.9%     -    0s
H    0     0                    1.163268e+08 1.0198e+08  12.3%     -    0s
H    0     0                    1.085746e+08 1.0198e+08  6.08%     -    0s
     0     2 1.0198e+08    0   32 1.0857e+08 1.0198e+08  6.08%     -    0s
H  154   154                    1.064262e+08 1.0198e+08  4.18%   4.7    0s
H  483   482                    1.054436e+08 1.0198e+08  3.29%   2.7    0s
H  993   990                    1.054213e+08 1.0198e+08  3.27%   3.1    1s
H 1353  1254                    1.051021e+08 1.0198e+08  2.98%   3.5    1s
H 1367  1200                    1.045382e+08 1.0198e+08  2.45%   3.4    2s
H 1638  1321                    1.042908e+08 1.0198e+08  2.22%   7.5    3s
  2400  1830 1.0218e+08  525   16 1.0429e+08 1.0198e+08  2.22%   6.8    5s
H 3298  1744                    1.026252e+08 1.0198e+08  0.63%   5.9    6s
H 3354  1728                    1.026166e+08 1.0198e+08  0.62%   6.0    6s
H 4347  2027                    1.025958e+08 1.0198e+08  0.60%   5.5    7s
H 4985  2513                    1.024298e+08 1.0198e+08  0.44%   5.5    8s
  5948  3474 1.0207e+08  668   15 1.0243e+08 1.0198e+08  0.44%   5.0   10s
  9853  7150 1.0198e+08  626   16 1.0243e+08 1.0198e+08  0.44%   5.2   15s
H10064  7359                    1.024288e+08 1.0198e+08  0.44%   5.2   15s
H11447  8569                    1.023122e+08 1.0198e+08  0.33%   5.3   17s
 13753 10500 1.0198e+08  783   16 1.0231e+08 1.0198e+08  0.33%   5.4   20s
H14309 10732                    1.023087e+08 1.0198e+08  0.32%   5.5   20s
 18796 12701 1.0198e+08  820   16 1.0231e+08 1.0198e+08  0.32%   5.3   25s
 24759 15332 1.0198e+08  801   16 1.0231e+08 1.0198e+08  0.32%   5.2   30s
H26837 16286                    1.023071e+08 1.0198e+08  0.32%   5.1   31s
 31904 19044 1.0227e+08  769   17 1.0231e+08 1.0198e+08  0.32%   5.1   35s
 38733 23513 1.0198e+08  778   15 1.0231e+08 1.0198e+08  0.32%   5.1   40s
 44810 26590 1.0198e+08  760   14 1.0231e+08 1.0198e+08  0.32%   5.4   45s
 50925 29139 1.0198e+08  787   16 1.0231e+08 1.0198e+08  0.32%   5.7   50s
 57648 31754 1.0198e+08  767   15 1.0231e+08 1.0198e+08  0.32%   5.9   55s
 64040 34289     cutoff  771      1.0231e+08 1.0198e+08  0.32%   6.0   60s
 70052 37190 1.0225e+08  760   24 1.0231e+08 1.0198e+08  0.32%   6.0   65s
H72009 38485                    1.023046e+08 1.0198e+08  0.32%   6.0   66s
 74787 40324 1.0225e+08  829   17 1.0230e+08 1.0198e+08  0.32%   6.0   70s
 79514 42795 1.0198e+08  755   16 1.0230e+08 1.0198e+08  0.32%   6.0   75s
 84585 44832 1.0198e+08  781   16 1.0230e+08 1.0198e+08  0.32%   6.0   80s
 90003 46981 1.0198e+08  777   19 1.0230e+08 1.0198e+08  0.32%   5.9   85s
 95281 48792     cutoff  806      1.0230e+08 1.0198e+08  0.32%   5.9   90s
 100606 51011     cutoff  775      1.0230e+08 1.0198e+08  0.32%   5.8   95s
 105720 52860 1.0198e+08  798   15 1.0230e+08 1.0198e+08  0.32%   5.8  100s
 110748 54355 1.0225e+08  803   13 1.0230e+08 1.0198e+08  0.32%   5.8  105s
 115819 55773 1.0198e+08  774   14 1.0230e+08 1.0198e+08  0.32%   5.7  110s
 121474 57563 1.0219e+08  793   16 1.0230e+08 1.0198e+08  0.32%   5.7  115s
 126418 59187 1.0198e+08  744   14 1.0230e+08 1.0198e+08  0.32%   5.6  120s
 131656 61549 1.0198e+08  773   17 1.0230e+08 1.0198e+08  0.32%   5.6  125s
 136916 63783 1.0225e+08  786   15 1.0230e+08 1.0198e+08  0.32%   5.6  130s
 140309 66026 1.0230e+08  755   13 1.0230e+08 1.0198e+08  0.32%   5.6  135s
 144546 68379 1.0230e+08  880   14 1.0230e+08 1.0198e+08  0.32%   5.7  140s
 148968 70696 1.0198e+08  740   12 1.0230e+08 1.0198e+08  0.32%   5.6  145s
 154256 73646 1.0198e+08  767   16 1.0230e+08 1.0198e+08  0.32%   5.6  150s
 158786 75986     cutoff  805      1.0230e+08 1.0198e+08  0.32%   5.6  155s
 163449 78691 1.0198e+08  774   16 1.0230e+08 1.0198e+08  0.32%   5.6  160s
 169859 82510 1.0198e+08  797   16 1.0230e+08 1.0198e+08  0.32%   5.6  165s
 176784 85843 1.0198e+08  818   19 1.0230e+08 1.0198e+08  0.32%   5.6  170s
 183378 90293 1.0198e+08  864   19 1.0230e+08 1.0198e+08  0.32%   5.7  175s
 189897 94900 1.0225e+08  856   18 1.0230e+08 1.0198e+08  0.32%   5.7  180s
H196522 96033                    1.022915e+08 1.0198e+08  0.31%   5.7  184s
 196963 96311 1.0198e+08  785   14 1.0229e+08 1.0198e+08  0.31%   5.7  185s
H197113 96353                    1.022909e+08 1.0198e+08  0.31%   5.7  185s
H197190 95544                    1.022891e+08 1.0198e+08  0.30%   5.7  185s
H197951 96014                    1.022889e+08 1.0198e+08  0.30%   5.7  185s
H198792 96591                    1.022889e+08 1.0198e+08  0.30%   5.7  186s
 204040 99850 infeasible  879      1.0229e+08 1.0198e+08  0.30%   5.7  190s
H205681 100804                    1.022888e+08 1.0198e+08  0.30%   5.7  191s
H209965 103885                    1.022888e+08 1.0198e+08  0.30%   5.7  194s
 211799 105253     cutoff  860      1.0229e+08 1.0198e+08  0.30%   5.7  195s
 217947 109286 1.0198e+08  785   15 1.0229e+08 1.0198e+08  0.30%   5.7  200s
H222327 112405                    1.022886e+08 1.0198e+08  0.30%   5.7  204s
 223381 113189 1.0198e+08  828   20 1.0229e+08 1.0198e+08  0.30%   5.7  205s
H228006 116042                    1.022882e+08 1.0198e+08  0.30%   5.7  209s
 229017 116669 1.0198e+08  809   15 1.0229e+08 1.0198e+08  0.30%   5.7  210s
H232761 119081                    1.022879e+08 1.0198e+08  0.30%   5.7  213s
H233270 119289                    1.022873e+08 1.0198e+08  0.30%   5.7  213s
 234708 120027 1.0217e+08  753   18 1.0229e+08 1.0198e+08  0.30%   5.7  215s
 239064 122840 1.0198e+08  844   16 1.0229e+08 1.0198e+08  0.30%   5.7  220s
H239590 120260                    1.022751e+08 1.0198e+08  0.29%   5.7  220s
 243130 122481 1.0198e+08  842   18 1.0228e+08 1.0198e+08  0.29%   5.7  225s
*243383 121815             882    1.022719e+08 1.0198e+08  0.29%   5.7  225s
*243389 121812             880    1.022719e+08 1.0198e+08  0.29%   5.7  225s
 247918 124655 1.0198e+08  844   17 1.0227e+08 1.0198e+08  0.29%   5.8  230s
H248695 124522                    1.022668e+08 1.0198e+08  0.28%   5.8  230s
 253563 127406 1.0198e+08  775   16 1.0227e+08 1.0198e+08  0.28%   5.8  235s
 259395 130065 infeasible  804      1.0227e+08 1.0198e+08  0.28%   5.7  240s
 264683 131789 1.0198e+08  802   15 1.0227e+08 1.0198e+08  0.28%   5.7  245s
 270370 135168 1.0198e+08  800   17 1.0227e+08 1.0198e+08  0.28%   5.7  250s
H272199 136098                    1.022667e+08 1.0198e+08  0.28%   5.7  251s
 276159 138598 1.0198e+08  759   14 1.0227e+08 1.0198e+08  0.28%   5.7  255s
 281855 142305 1.0198e+08  791   15 1.0227e+08 1.0198e+08  0.28%   5.7  260s
 287623 145926 1.0198e+08  762   14 1.0227e+08 1.0198e+08  0.28%   5.7  265s
H289202 146778                    1.022667e+08 1.0198e+08  0.28%   5.7  266s
 293341 149307 1.0198e+08  780   14 1.0227e+08 1.0198e+08  0.28%   5.7  270s
H297073 151556                    1.022663e+08 1.0198e+08  0.28%   5.7  273s
 298948 152799 1.0198e+08  774   14 1.0227e+08 1.0198e+08  0.28%   5.7  275s
H301627 154190                    1.022660e+08 1.0198e+08  0.28%   5.7  277s
 304705 156045 1.0198e+08  843   17 1.0227e+08 1.0198e+08  0.28%   5.7  280s
 310507 159021 1.0198e+08  780   13 1.0227e+08 1.0198e+08  0.28%   5.7  285s
H311315 159578                    1.022658e+08 1.0198e+08  0.28%   5.7  285s
 315789 162305 1.0198e+08  861   18 1.0227e+08 1.0198e+08  0.28%   5.7  290s
H321073 165683                    1.022655e+08 1.0198e+08  0.28%   5.7  295s
 327114 169664 1.0198e+08  809   17 1.0227e+08 1.0198e+08  0.28%   5.7  300s
 332973 173677 1.0198e+08  880   19 1.0227e+08 1.0198e+08  0.28%   5.7  305s
 337664 176754 1.0198e+08  736   14 1.0227e+08 1.0198e+08  0.28%   5.7  310s
 343165 180368     cutoff  855      1.0227e+08 1.0198e+08  0.28%   5.7  315s
 348618 184085 1.0198e+08  753   13 1.0227e+08 1.0198e+08  0.28%   5.7  320s
H351391 185375                    1.022647e+08 1.0198e+08  0.28%   5.7  322s
 354346 187276 1.0198e+08  802   15 1.0226e+08 1.0198e+08  0.28%   5.7  325s
H359720 189524                    1.022522e+08 1.0198e+08  0.27%   5.7  329s
 359782 189588 1.0198e+08  842   21 1.0225e+08 1.0198e+08  0.27%   5.7  330s
H361096 190419                    1.022513e+08 1.0198e+08  0.27%   5.7  331s
H362902 191404                    1.022511e+08 1.0198e+08  0.27%   5.7  332s
 365319 192865 1.0198e+08  765   15 1.0225e+08 1.0198e+08  0.27%   5.7  335s
H366897 193616                    1.022510e+08 1.0198e+08  0.27%   5.7  336s
H368628 194615                    1.022509e+08 1.0198e+08  0.27%   5.7  338s
 370619 196040 1.0198e+08  805   20 1.0225e+08 1.0198e+08  0.27%   5.7  340s
H374512 198280                    1.022506e+08 1.0198e+08  0.27%   5.7  343s
H376072 199048                    1.022493e+08 1.0198e+08  0.27%   5.7  344s
 376161 199062 1.0198e+08  823   15 1.0225e+08 1.0198e+08  0.27%   5.7  345s
H376332 199110                    1.022493e+08 1.0198e+08  0.27%   5.7  345s
 380787 201737 1.0198e+08  806   19 1.0225e+08 1.0198e+08  0.27%   5.7  350s
H384769 203903                    1.022475e+08 1.0198e+08  0.26%   5.7  354s
 385073 204047 1.0198e+08  810   19 1.0225e+08 1.0198e+08  0.26%   5.7  355s
H387112 202878                    1.022470e+08 1.0198e+08  0.26%   5.7  357s
 390683 204862 1.0198e+08  873   16 1.0225e+08 1.0198e+08  0.26%   5.7  360s
H391061 200525                    1.022427e+08 1.0198e+08  0.26%   5.7  360s
 398817 204537 1.0198e+08  800   15 1.0224e+08 1.0198e+08  0.26%   5.7  365s
H404119 207323                    1.022345e+08 1.0198e+08  0.25%   5.7  368s
 406742 208743 1.0198e+08  790   16 1.0223e+08 1.0198e+08  0.25%   5.7  370s
H411272 210421                    1.022233e+08 1.0198e+08  0.24%   5.7  372s
 414826 212225 1.0201e+08  768   23 1.0222e+08 1.0198e+08  0.24%   5.7  375s
H415929 212662                    1.022211e+08 1.0198e+08  0.24%   5.7  375s
 427085 217969 1.0198e+08  740   13 1.0222e+08 1.0198e+08  0.24%   5.6  380s
 438174 223892 1.0198e+08  807   15 1.0222e+08 1.0198e+08  0.24%   5.6  385s
 450891 230385 1.0198e+08  767   15 1.0222e+08 1.0198e+08  0.24%   5.6  390s
 463894 235986     cutoff  798      1.0222e+08 1.0198e+08  0.24%   5.6  395s
 477274 239884     cutoff  800      1.0222e+08 1.0198e+08  0.24%   5.6  400s
 485941 243848 1.0219e+08  830   17 1.0222e+08 1.0198e+08  0.24%   5.6  405s
 494159 247258 1.0198e+08  787   16 1.0222e+08 1.0198e+08  0.24%   5.6  410s
 502222 249970 1.0198e+08  801   16 1.0222e+08 1.0198e+08  0.24%   5.6  415s
 510472 252879 1.0198e+08  787   14 1.0222e+08 1.0198e+08  0.24%   5.6  420s
 518562 255438 1.0199e+08  819   23 1.0222e+08 1.0198e+08  0.24%   5.6  425s
 526471 257737 1.0198e+08  826   16 1.0222e+08 1.0198e+08  0.24%   5.6  430s
 534616 260146 1.0198e+08  818   19 1.0222e+08 1.0198e+08  0.24%   5.6  435s
 543003 262623 1.0198e+08  814   16 1.0222e+08 1.0198e+08  0.24%   5.6  440s
 551635 267083 1.0198e+08  825   16 1.0222e+08 1.0198e+08  0.24%   5.6  445s
 560320 271725 1.0198e+08  783   16 1.0222e+08 1.0198e+08  0.24%   5.6  450s
 569108 276396 1.0198e+08  836   17 1.0222e+08 1.0198e+08  0.24%   5.6  455s
 578398 281101 1.0198e+08  794   17 1.0222e+08 1.0198e+08  0.24%   5.5  460s
 587332 285612 1.0198e+08  750   12 1.0222e+08 1.0198e+08  0.24%   5.5  465s
 596719 290217 1.0198e+08  780   15 1.0222e+08 1.0198e+08  0.24%   5.5  470s
 606124 294704 1.0198e+08  830   15 1.0222e+08 1.0198e+08  0.24%   5.5  475s
 615010 299593 1.0198e+08  782   14 1.0222e+08 1.0198e+08  0.24%   5.5  480s
 623758 303822     cutoff  807      1.0222e+08 1.0198e+08  0.24%   5.5  485s
 632741 308118 1.0198e+08  771   17 1.0222e+08 1.0198e+08  0.24%   5.5  490s
 641752 312348 1.0198e+08  832   17 1.0222e+08 1.0198e+08  0.24%   5.5  495s
 650802 316869 1.0198e+08  814   17 1.0222e+08 1.0198e+08  0.24%   5.4  500s
 660263 321339 1.0198e+08  757   15 1.0222e+08 1.0198e+08  0.24%   5.4  505s
 669489 326197 1.0198e+08  794   16 1.0222e+08 1.0198e+08  0.24%   5.4  510s
 678710 330647 1.0198e+08  805   17 1.0222e+08 1.0198e+08  0.24%   5.4  515s
 687677 335393 1.0198e+08  833   17 1.0222e+08 1.0198e+08  0.24%   5.4  520s
 700525 342698 1.0198e+08  791   16 1.0222e+08 1.0198e+08  0.24%   5.4  525s
 713647 349504 infeasible  823      1.0222e+08 1.0198e+08  0.24%   5.4  530s
 726321 356139     cutoff  822      1.0222e+08 1.0198e+08  0.24%   5.4  535s
 739896 362284 1.0219e+08  819   18 1.0222e+08 1.0198e+08  0.24%   5.4  540s
 753462 368713 1.0198e+08  770   15 1.0222e+08 1.0198e+08  0.24%   5.4  545s
 766904 375375 1.0198e+08  793   15 1.0222e+08 1.0198e+08  0.24%   5.4  550s
 780530 381711 1.0198e+08  773   14 1.0222e+08 1.0198e+08  0.24%   5.4  555s
H793756 387152                    1.022120e+08 1.0198e+08  0.23%   5.3  559s
 793937 387209 1.0198e+08  765   14 1.0221e+08 1.0198e+08  0.23%   5.3  560s
 807644 393061 1.0199e+08  828   20 1.0221e+08 1.0198e+08  0.23%   5.3  565s
 821163 399823 1.0198e+08  764   15 1.0221e+08 1.0198e+08  0.23%   5.3  570s
 834321 406756     cutoff  820      1.0221e+08 1.0198e+08  0.23%   5.3  575s
 847586 413681 1.0198e+08  762   16 1.0221e+08 1.0198e+08  0.23%   5.3  580s
 861098 420211 1.0198e+08  804   17 1.0221e+08 1.0198e+08  0.23%   5.3  585s
 874196 423076 infeasible  773      1.0221e+08 1.0198e+08  0.23%   5.3  590s
 887432 426262 1.0198e+08  782   17 1.0221e+08 1.0198e+08  0.23%   5.3  595s
 900229 429403     cutoff  815      1.0221e+08 1.0198e+08  0.23%   5.3  600s
 913079 432428 1.0203e+08  796   22 1.0221e+08 1.0198e+08  0.23%   5.3  605s
 924632 434745 1.0198e+08  791   14 1.0221e+08 1.0198e+08  0.23%   5.3  610s
 936663 437117 1.0200e+08  814   16 1.0221e+08 1.0198e+08  0.23%   5.3  615s
 948558 439193     cutoff  825      1.0221e+08 1.0198e+08  0.23%   5.3  620s
 960558 441697     cutoff  824      1.0221e+08 1.0198e+08  0.23%   5.3  625s
 973282 444935     cutoff  798      1.0221e+08 1.0198e+08  0.23%   5.3  630s
 985724 447680 1.0198e+08  793   16 1.0221e+08 1.0198e+08  0.23%   5.3  635s
 998422 450986 1.0198e+08  764   16 1.0221e+08 1.0198e+08  0.23%   5.3  640s
 1010799 454822 1.0210e+08  794   23 1.0221e+08 1.0198e+08  0.23%   5.2  645s
 1023238 457975     cutoff  812      1.0221e+08 1.0198e+08  0.23%   5.2  650s
 1035949 461154     cutoff  788      1.0221e+08 1.0198e+08  0.23%   5.2  655s
 1048510 464407     cutoff  767      1.0221e+08 1.0198e+08  0.23%   5.2  660s
 1059628 467839 1.0198e+08  801   15 1.0221e+08 1.0198e+08  0.23%   5.2  665s
 1069749 471642 1.0198e+08  802   14 1.0221e+08 1.0198e+08  0.23%   5.2  670s
 1076440 474193 1.0210e+08  811   27 1.0221e+08 1.0198e+08  0.23%   5.2  675s
 1083536 476782 1.0198e+08  797   14 1.0221e+08 1.0198e+08  0.23%   5.2  680s
 1090463 479123 1.0198e+08  802   14 1.0221e+08 1.0198e+08  0.23%   5.2  685s
 1097103 481480 1.0198e+08  834   16 1.0221e+08 1.0198e+08  0.23%   5.2  690s
 1103912 483661 1.0198e+08  812   15 1.0221e+08 1.0198e+08  0.23%   5.2  695s
 1110942 486756 1.0214e+08  825   24 1.0221e+08 1.0198e+08  0.23%   5.2  700s
H1112118 485362                    1.021897e+08 1.0198e+08  0.21%   5.2  701s
H1112339 485457                    1.021895e+08 1.0198e+08  0.21%   5.2  701s
 1117662 487335 1.0198e+08  784   17 1.0219e+08 1.0198e+08  0.21%   5.2  705s
 1124838 490004 1.0198e+08  830   17 1.0219e+08 1.0198e+08  0.21%   5.2  710s
 1132525 493153 1.0198e+08  843   17 1.0219e+08 1.0198e+08  0.21%   5.2  715s
 1139124 495979 1.0198e+08  789   14 1.0219e+08 1.0198e+08  0.21%   5.2  720s
 1145760 499031 1.0219e+08  823   17 1.0219e+08 1.0198e+08  0.21%   5.1  725s
H1148556 500328                    1.021894e+08 1.0198e+08  0.21%   5.1  727s
 1152946 502403 1.0198e+08  813   15 1.0219e+08 1.0198e+08  0.21%   5.1  730s
 1160892 505351 1.0198e+08  799   14 1.0219e+08 1.0198e+08  0.21%   5.1  735s
 1167919 508368 1.0198e+08  789   16 1.0219e+08 1.0198e+08  0.21%   5.1  740s
 1175280 511248 1.0214e+08  838   25 1.0219e+08 1.0198e+08  0.21%   5.1  745s
 1182557 514119 1.0216e+08  829   24 1.0219e+08 1.0198e+08  0.21%   5.1  750s
 1190207 517263 1.0198e+08  803   16 1.0219e+08 1.0198e+08  0.21%   5.1  755s
 1197560 520082 1.0198e+08  807   17 1.0219e+08 1.0198e+08  0.21%   5.1  760s
 1204919 523107 1.0198e+08  804   16 1.0219e+08 1.0198e+08  0.21%   5.1  765s
 1212616 526343 1.0198e+08  820   17 1.0219e+08 1.0198e+08  0.21%   5.1  770s
 1220114 530414 1.0198e+08  769   15 1.0219e+08 1.0198e+08  0.21%   5.1  775s
 1227759 534563 1.0199e+08  820   22 1.0219e+08 1.0198e+08  0.21%   5.1  780s
 1234772 538024 1.0198e+08  775   14 1.0219e+08 1.0198e+08  0.21%   5.1  785s
H1235879 537700                    1.021717e+08 1.0198e+08  0.19%   5.1  785s
H1238970 539162                    1.021687e+08 1.0198e+08  0.19%   5.1  787s
 1242187 541110 1.0198e+08  759   14 1.0217e+08 1.0198e+08  0.19%   5.1  790s
 1249554 544784 1.0198e+08  805   16 1.0217e+08 1.0198e+08  0.19%   5.1  795s
 1256585 548648 1.0198e+08  798   15 1.0217e+08 1.0198e+08  0.19%   5.1  800s
H1258923 549951                    1.021686e+08 1.0198e+08  0.19%   5.1  801s
 1264246 553218 1.0198e+08  831   18 1.0217e+08 1.0198e+08  0.19%   5.1  805s
 1271543 557593 1.0198e+08  760   15 1.0217e+08 1.0198e+08  0.19%   5.1  810s
 1279132 561854 1.0198e+08  850   19 1.0217e+08 1.0198e+08  0.19%   5.0  815s
 1286700 566265 1.0204e+08  869   25 1.0217e+08 1.0198e+08  0.19%   5.0  820s
 1294037 570298 1.0198e+08  787   19 1.0217e+08 1.0198e+08  0.19%   5.0  825s
H1296427 571524                    1.021673e+08 1.0198e+08  0.19%   5.0  826s
 1300929 573630 infeasible  816      1.0217e+08 1.0198e+08  0.19%   5.0  830s
H1302210 572387                    1.021244e+08 1.0198e+08  0.14%   5.0  830s
 1308412 576113 1.0198e+08  794   14 1.0212e+08 1.0198e+08  0.14%   5.0  835s
H1312067 577769                    1.021223e+08 1.0198e+08  0.14%   5.0  837s
H1313766 578011                    1.021142e+08 1.0198e+08  0.13%   5.0  838s
 1315975 579317 1.0198e+08  764   14 1.0211e+08 1.0198e+08  0.13%   5.0  840s
 1323406 583678 1.0198e+08  815   16 1.0211e+08 1.0198e+08  0.13%   5.0  845s
H1324245 583941                    1.021135e+08 1.0198e+08  0.13%   5.0  845s
 1330708 587508 1.0198e+08  807   16 1.0211e+08 1.0198e+08  0.13%   5.0  850s
 1337797 591230 1.0198e+08  792   18 1.0211e+08 1.0198e+08  0.13%   5.0  855s
H1344169 595013                    1.021131e+08 1.0198e+08  0.13%   5.0  859s
 1345032 595579 1.0198e+08  785   14 1.0211e+08 1.0198e+08  0.13%   5.0  860s
 1352618 599741 1.0198e+08  789   14 1.0211e+08 1.0198e+08  0.13%   5.0  865s
 1360337 604119 1.0211e+08  818   22 1.0211e+08 1.0198e+08  0.13%   5.0  870s
 1370386 609818 1.0198e+08  817   16 1.0211e+08 1.0198e+08  0.13%   5.0  875s
 1380508 615542     cutoff  788      1.0211e+08 1.0198e+08  0.13%   5.0  880s
 1391635 621738     cutoff  826      1.0211e+08 1.0198e+08  0.13%   5.0  885s
 1403001 628070 1.0198e+08  839   17 1.0211e+08 1.0198e+08  0.13%   5.0  890s
 1412834 633758 1.0199e+08  836   18 1.0211e+08 1.0198e+08  0.13%   5.0  895s
 1423353 639861 1.0198e+08  792   16 1.0211e+08 1.0198e+08  0.13%   5.0  900s
 1434035 645557 1.0198e+08  817   14 1.0211e+08 1.0198e+08  0.13%   5.0  905s
 1443004 650531 1.0199e+08  837   19 1.0211e+08 1.0198e+08  0.13%   5.0  910s
 1453862 655717 1.0198e+08  809   17 1.0211e+08 1.0198e+08  0.13%   5.0  915s
 1464206 661066 1.0198e+08  751   15 1.0211e+08 1.0198e+08  0.13%   5.0  920s
 1475287 666928 1.0198e+08  797   16 1.0211e+08 1.0198e+08  0.13%   5.0  925s
 1484832 672875 1.0198e+08  781   16 1.0211e+08 1.0198e+08  0.13%   5.0  930s
 1495478 678349 1.0198e+08  760   13 1.0211e+08 1.0198e+08  0.13%   5.0  935s
 1505721 683766 1.0198e+08  821   19 1.0211e+08 1.0198e+08  0.13%   5.0  940s
 1516307 688381 1.0199e+08  788   23 1.0211e+08 1.0198e+08  0.13%   5.0  945s
 1526769 692226 1.0198e+08  784   14 1.0211e+08 1.0198e+08  0.13%   5.0  950s
 1538053 696491 1.0199e+08  791   17 1.0211e+08 1.0198e+08  0.13%   5.0  955s
 1549995 700791 1.0198e+08  792   16 1.0211e+08 1.0198e+08  0.13%   4.9  960s
H1560574 705113                    1.021131e+08 1.0198e+08  0.13%   4.9  964s
 1561079 705255 1.0198e+08  793   13 1.0211e+08 1.0198e+08  0.13%   4.9  965s
 1572627 711176 1.0198e+08  774   14 1.0211e+08 1.0198e+08  0.13%   4.9  970s
 1584107 716716 1.0198e+08  774   13 1.0211e+08 1.0198e+08  0.13%   4.9  975s
 1595262 722005 1.0198e+08  779   15 1.0211e+08 1.0198e+08  0.13%   4.9  980s
 1606480 726643 1.0198e+08  780   14 1.0211e+08 1.0198e+08  0.13%   4.9  985s
 1617253 732271 1.0198e+08  793   16 1.0211e+08 1.0198e+08  0.13%   4.9  990s
 1628540 737977     cutoff  796      1.0211e+08 1.0198e+08  0.13%   4.9  995s

Cutting planes:
  Gomory: 3
  MIR: 1

Explored 1639204 nodes (8002108 simplex iterations) in 1000.01 seconds
Thread count was 1 (of 8 available processors)

Time limit reached
Best objective 1.021130860000e+08, best bound 1.019775300000e+08, gap 0.1328%
